20:50:18 | INFO    | Run started | run_id: MR_MV_WT_case2_P5_R3_eps9999 | log file: C:\Users\Asus\Documents\GitHub\logistics-model2\internal-logistics-model2\results\MR_MV_WT\case2\MR_MV_WT_case2_P5_R3_eps9999_2026_05_04_20_50.log
20:50:19 | INFO    | Products loaded | sheet=case2 | rows=10
20:50:19 | INFO    | Data loaded | |N|=26 |Nw|=25 |K|=3 |R|=3 |P|=5 | U=25
20:50:19 | INFO    | Big-M | time=491.0 precedence=480.0 wait=465.0 load_lb=20 load_ub=20
20:50:19 | INFO    | Set parameter Username
20:50:19 | INFO    | Set parameter LicenseID to value 2811848
20:50:19 | INFO    | Academic license - for non-commercial use only - expires 2027-04-22
20:50:19 | INFO    | Objective set | primary: min total_wait | tie-break weight on route_duration: 0.001
20:50:19 | INFO    | Constraint (3) added | route_duration <= 9999
20:50:19 | INFO    | Constraints (4)-(9) added | route structure
20:50:19 | INFO    | Constraints (10)-(12) added | product assignment
20:50:19 | INFO    | Constraints (13)-(15) added | route timing
20:50:19 | INFO    | Constraints (16) added | time consistency
20:50:19 | INFO    | Constraints (17)-(19) added | service times
20:50:19 | INFO    | Constraints (20)-(22) added | precedence, route closure, waiting
20:50:19 | INFO    | Constraints (23)-(27) added | load propagation
20:50:19 | INFO    | Constraints (28)-(32) added | MTZ and route ordering
20:50:19 | INFO    | Set parameter TimeLimit to value 600
20:50:19 | INFO    | Set parameter MIPGap to value 0.01
20:50:19 | INFO    | Set parameter Presolve to value 2
20:50:19 | INFO    | Set parameter LogFile to value "C:\Users\Asus\Documents\GitHub\logistics-model2\internal-logistics-model2\results\MR_MV_WT\case2\result_MR_MV_WT_case2_P5_R3_eps9999_2026_05_04_20_50.log"
20:50:19 | INFO    | Solver configured | TimeLimit=600s | MIPGap=0.01 | gurobi_log=C:\Users\Asus\Documents\GitHub\logistics-model2\internal-logistics-model2\results\MR_MV_WT\case2\result_MR_MV_WT_case2_P5_R3_eps9999_2026_05_04_20_50.log
20:50:19 | INFO    | Optimization starting...
20:50:19 | INFO    | Gurobi Optimizer version 12.0.0 build v12.0.0rc1 (win64 - Windows 10.0 (19045.2))
20:50:19 | INFO    | 
20:50:19 | INFO    | CPU model: 12th Gen Intel(R) Core(TM) i7-12650H, instruction set [SSE2|AVX|AVX2]
20:50:19 | INFO    | Thread count: 10 physical cores, 16 logical processors, using up to 16 threads
20:50:19 | INFO    | 
20:50:19 | INFO    | Non-default parameters:
20:50:19 | INFO    | TimeLimit  600
20:50:19 | INFO    | MIPGap  0.01
20:50:19 | INFO    | Presolve  2
20:50:19 | INFO    | 
20:50:19 | INFO    | Optimize a model with 24417 rows, 7277 columns and 122577 nonzeros
20:50:19 | INFO    | Model fingerprint: 0x17be3de3
20:50:19 | INFO    | Variable types: 1157 continuous, 6120 integer (5895 binary)
20:50:19 | INFO    | Coefficient statistics:
20:50:19 | INFO    |   Matrix range     [1e+00, 5e+02]
20:50:19 | INFO    |   Objective range  [1e-03, 1e+00]
20:50:19 | INFO    |   Bounds range     [1e+00, 3e+01]
20:50:19 | INFO    |   RHS range        [1e+00, 1e+04]
20:50:19 | INFO    | Presolve removed 21423 rows and 6258 columns
20:50:19 | INFO    | Presolve time: 0.13s
20:50:19 | INFO    | Presolved: 2994 rows, 1019 columns, 16932 nonzeros
20:50:19 | INFO    | Variable types: 317 continuous, 702 integer (630 binary)
20:50:19 | INFO    | Root relaxation presolve removed 27 rows and 0 columns
20:50:19 | INFO    | Root relaxation presolved: 2967 rows, 1037 columns, 16763 nonzeros
20:50:19 | INFO    | 
20:50:19 | INFO    | 
20:50:19 | INFO    | Root relaxation: objective 0.000000e+00, 291 iterations, 0.01 seconds (0.03 work units)
20:50:19 | INFO    | 
20:50:19 | INFO    |     Nodes    |    Current Node    |     Objective Bounds      |     Work
20:50:19 | INFO    |  Expl Unexpl |  Obj  Depth IntInf | Incumbent    BestBd   Gap | It/Node Time
20:50:19 | INFO    | 
20:50:19 | INFO    |      0     0    0.00000    0   57          -    0.00000      -     -    0s
20:50:19 | INFO    | H    0     0                     198.0940000    0.00000   100%     -    0s
20:50:20 | INFO    |      0     0    0.00000    0   78  198.09400    0.00000   100%     -    0s
20:50:20 | INFO    |      0     0    0.00000    0   90  198.09400    0.00000   100%     -    0s
20:50:20 | INFO    | H    0     0                     160.1330000    3.00000  98.1%     -    0s
20:50:20 | INFO    | H    0     0                     160.1320000    3.00000  98.1%     -    0s
20:50:20 | INFO    | H    0     0                     153.1330000    3.00000  98.0%     -    0s
20:50:20 | INFO    |      0     0    3.00000    0   47  153.13300    3.00000  98.0%     -    0s
20:50:20 | INFO    | H    0     0                      75.1570000    3.00000  96.0%     -    0s
20:50:20 | INFO    |      0     0    3.00000    0   49   75.15700    3.00000  96.0%     -    0s
20:50:20 | INFO    |      0     0    3.00000    0   54   75.15700    3.00000  96.0%     -    0s
20:50:20 | INFO    |      0     0    4.50000    0   63   75.15700    4.50000  94.0%     -    0s
20:50:20 | INFO    | H    0     0                      41.1120000    6.00923  85.4%     -    0s
20:50:20 | INFO    |      0     0    6.00923    0  101   41.11200    6.00923  85.4%     -    0s
20:50:20 | INFO    |      0     0    6.00923    0   97   41.11200    6.00923  85.4%     -    0s
20:50:20 | INFO    |      0     0    9.00000    0   78   41.11200    9.00000  78.1%     -    0s
20:50:20 | INFO    |      0     0    9.00000    0   78   41.11200    9.00000  78.1%     -    0s
20:50:20 | INFO    |      0     0    9.00000    0   78   41.11200    9.00000  78.1%     -    0s
20:50:20 | INFO    |      0     0   12.00000    0   88   41.11200   12.00000  70.8%     -    0s
20:50:20 | INFO    |      0     0   12.00000    0   66   41.11200   12.00000  70.8%     -    0s
20:50:20 | INFO    | H    0     0                      35.1500000   12.00000  65.9%     -    0s
20:50:20 | INFO    |      0     0   12.00000    0   46   35.15000   12.00000  65.9%     -    0s
20:50:20 | INFO    |      0     0   12.00000    0   81   35.15000   12.00000  65.9%     -    0s
20:50:20 | INFO    |      0     0   12.00000    0   78   35.15000   12.00000  65.9%     -    0s
20:50:20 | INFO    |      0     0   12.00000    0   79   35.15000   12.00000  65.9%     -    0s
20:50:20 | INFO    |      0     0   12.00000    0   90   35.15000   12.00000  65.9%     -    0s
20:50:20 | INFO    |      0     0   12.00000    0   96   35.15000   12.00000  65.9%     -    0s
20:50:20 | INFO    |      0     0   12.00000    0  103   35.15000   12.00000  65.9%     -    0s
20:50:20 | INFO    |      0     0   12.00000    0   97   35.15000   12.00000  65.9%     -    0s
20:50:20 | INFO    |      0     0   12.00000    0  102   35.15000   12.00000  65.9%     -    1s
20:50:20 | INFO    |      0     0   12.00000    0   91   35.15000   12.00000  65.9%     -    1s
20:50:21 | INFO    |      0     0   12.00000    0   55   35.15000   12.00000  65.9%     -    1s
20:50:21 | INFO    |      0     0   12.00000    0   49   35.15000   12.00000  65.9%     -    1s
20:50:21 | INFO    |      0     0   12.04442    0   80   35.15000   12.04442  65.7%     -    1s
20:50:21 | INFO    |      0     0   12.04442    0   63   35.15000   12.04442  65.7%     -    1s
20:50:21 | INFO    |      0     0   13.50031    0   52   35.15000   13.50031  61.6%     -    1s
20:50:21 | INFO    |      0     0   15.00000    0  125   35.15000   15.00000  57.3%     -    1s
20:50:21 | INFO    |      0     0   15.00000    0   84   35.15000   15.00000  57.3%     -    1s
20:50:21 | INFO    |      0     0   15.00000    0   69   35.15000   15.00000  57.3%     -    1s
20:50:21 | INFO    |      0     0   15.00000    0   81   35.15000   15.00000  57.3%     -    1s
20:50:21 | INFO    |      0     0   15.00000    0   66   35.15000   15.00000  57.3%     -    1s
20:50:21 | INFO    |      0     0   15.00000    0   68   35.15000   15.00000  57.3%     -    1s
20:50:21 | INFO    |      0     0   15.00000    0   44   35.15000   15.00000  57.3%     -    1s
20:50:21 | INFO    |      0     0   15.00000    0   69   35.15000   15.00000  57.3%     -    1s
20:50:21 | INFO    |      0     0   15.00000    0   42   35.15000   15.00000  57.3%     -    2s
20:50:21 | INFO    |      0     0   15.00000    0   42   35.15000   15.00000  57.3%     -    2s
20:50:21 | INFO    |      0     2   15.00000    0   42   35.15000   15.00000  57.3%     -    2s
20:50:24 | INFO    |   5751  1073 infeasible   26        35.15000   15.04700  57.2%  36.0    5s
20:50:29 | INFO    |   6610  1174   15.04750   16  124   35.15000   15.04750  57.2%  39.3   10s
20:50:33 | INFO    | 
20:50:33 | INFO    | Cutting planes:
20:50:33 | INFO    |   Learned: 3
20:50:33 | INFO    |   Gomory: 7
20:50:33 | INFO    |   Cover: 15
20:50:33 | INFO    |   Implied bound: 101
20:50:33 | INFO    |   Projected implied bound: 8
20:50:33 | INFO    |   Clique: 6
20:50:33 | INFO    |   MIR: 65
20:50:33 | INFO    |   Mixing: 1
20:50:33 | INFO    |   Flow cover: 256
20:50:33 | INFO    |   GUB cover: 1
20:50:33 | INFO    |   Zero half: 22
20:50:33 | INFO    |   RLT: 25
20:50:33 | INFO    |   Relax-and-lift: 101
20:50:33 | INFO    |   PSD: 1
20:50:33 | INFO    | 
20:50:33 | INFO    | Explored 8069 nodes (405326 simplex iterations) in 13.60 seconds (14.27 work units)
20:50:33 | INFO    | Thread count was 16 (of 16 available processors)
20:50:33 | INFO    | 
20:50:33 | INFO    | Solution count 7: 35.15 41.112 75.157 ... 198.094
20:50:33 | INFO    | 
20:50:33 | INFO    | Optimal solution found (tolerance 1.00e-02)
20:50:33 | INFO    | Best objective 3.515000000000e+01, best bound 3.515000000000e+01, gap 0.0000%
20:50:33 | INFO    | Solution found | total_wait=35.00 | route_duration=150.00
20:50:33 | INFO    | Objective=35.15 | runtime=13.60s | MIP Gap=0.00%
20:50:33 | INFO    | Generating Excel output | C:\Users\Asus\Documents\GitHub\logistics-model2\internal-logistics-model2\results\MR_MV_WT\case2\result_MR_MV_WT_case2_P5_R3_eps9999_2026_05_04_20_50.xlsx
20:50:33 | INFO    | Excel output written | 12 sheets | C:\Users\Asus\Documents\GitHub\logistics-model2\internal-logistics-model2\results\MR_MV_WT\case2\result_MR_MV_WT_case2_P5_R3_eps9999_2026_05_04_20_50.xlsx
20:50:33 | INFO    | Master Pareto updated | 11 total rows | C:\Users\Asus\Documents\GitHub\logistics-model2\internal-logistics-model2\results\master_pareto.xlsx
20:50:33 | INFO    | Run complete | run_id=MR_MV_WT_case2_P5_R3_eps9999
